(declare-fun c () String)
(declare-fun g () String)
(declare-fun b () String)
(declare-fun d () String)
(declare-fun f () String)
(declare-fun h () String)
(assert (= (str.++ b d g "gf") (str.++ "b" g h "e")))
(assert (= "cgf" (str.++ f c "fe" b "d")))
(assert (= (str.++ "hg" f "ggh") (str.++ h "h")))

(check-sat)
